\* First_problem *\
Minimize
OBJ: 2 x1 + 7 x2 + 2 x3
Subject To
First_constraint: x1 + 4 x2 + x3 >= 10
Second_constraint: 4 x1 + 2 x2 + 2 x3 >= 13
Third_constraint: x1 + x2 - x3 >= 0
Bounds
0 <= x1
0 <= x2
0 <= x3
Generals
x1
x2
x3
End
